r = [
0,9,62,47,7,15,58,9,19,43,16,0
];
p = [
0,14,1,6,20,4,25,9,9,11,24,0
];
e = [
0,14,20,5,12,18,8,14,4,14,9,0
];
d = [
0,68,128,113,73,74,122,71,76,102,73,129
];
d_bar = [
0,69,129,114,75,75,125,72,77,103,75,129
];
w = [
0,14,20,5,6,18,2.666666667,14,4,14,4.5,0
];
